
Tables  = {Table1, Table2, Table3, Table4, Table5};
wanted_days = [{}, {Mon, Wed}, {Thu, Fri}, {Mon, Wed, Fri}, 
               {Tue}, {Fri, Wed}, {Thu, Tue}, {Mon, Tue, Fri}, {Tue, Thu}, {}, {Tue, Wed, Thu}];
wanted_number_days = [{2}, {4}, {3}, {}, {2}, {1}, {3}, {3}, {1}, {4}, {}];
wanted_breaks = [true, false, true, true, true, false, false, true, false, true, true];
desired_partners = [{10}, {1,3}, {2}, {5,1}, {4, 2}, {1,8,7}, {2,3}, {}, {6,8}, {9}, {2, 10, 1}];